L=18;
no=10;
njo=[9,9,8,8,8,9,8,8,9,9];
djo=[16,15,16,15,13,18,18,17,15,18];
trab=[2,3,4,2,4,3,6,3,2,3,2,3,4,2,6,18,3,4,6,18,2,6,3,3,6,2,3,3,6,6,4,3,4,4,12,12,3,3,18,12,3,12,3,12,3,3,3,6,6,6,6,12,18,3,6,2,3,4,2,2,12,6,2,2,3,4,3,6,4,4,3,6,4,6,3,3,3,12,12,2,2,6,6,3,3,3,3,6,3,6,18,6,3,6,6,3,2,6,2,18,6,3,3,2,2,3,6,3,6,2,2,6,2,12,6,6,2,6,3,3,4,6,4,2,4,2,4,3,3,18,3,3,6,2,6,2,2,3,6,3,18,4,2,3,2,2,2,2,18,2,2,2,3,3,6,3,3,2,4,2,2];
nprec=12;
prec=[| 10, 20,
      | 16, 23,
      | 18, 26,
      | 20, 30,
      | 22, 34,
      | 31, 38,
      | 41, 47,
      | 51, 52,
      | 54, 60,
      | 57, 61,
      | 64, 69,
      | 68, 78 |];


%%%%%%%%%%%%%%%%%%%%%%%%%%%%%%%%%%%%%%%%%%%%%%%%%%%%%%%%%%%%%%%%%%%%%%
% 10
%
%  9   1   9  16  67
%  2   3   4   2   4   3   6   3   2   3   2   3   4   2   6  18 
%  1   1   1   0   0
%  1   2   2   0   0
%  1   3   3   0   0
%  1   4   4   0   0
%  1   5   5   0   0
%  1   6   6   0   0
%  1   7   7   0   0
%  1   8   8   0   0
%  1   9   9   0   0
%
%  9  10  18  15  75
%  3   4   6  18   2   6   3   3   6   2   3   3   6   6   4 
%  2   1  10   0   1
%      3   2  20
%  2   2  11   0   0
%  2   3  12   0   0
%  2   4  13   0   0
%  2   5  14   0   0
%  2   6  15   0   0
%  2   7  16   0   1
%      3   5  23
%  2   8  17   0   0
%  2   9  18   0   1
%      3   8  26
%
%  8  19  26  16 110
%  3   4   4  12  12   3   3  18  12   3  12   3  12   3   3   3 
%  3   1  19   0   0
%  3   2  20   1   1
%      2   1  10
%      4   4  30
%  3   3  21   0   0
%  3   4  22   0   1
%      4   8  34
%  3   5  23   1   0
%      2   7  16
%  3   6  24   0   0
%  3   7  25   0   0
%  3   8  26   1   0
%      2   9  18
%
%  8  27  34  15  94
%  6   6   6   6  12  18   3   6   2   3   4   2   2  12   6 
%  4   1  27   0   0
%  4   2  28   0   0
%  4   3  29   0   0
%  4   4  30   1   0
%      3   2  20
%  4   5  31   0   1
%      5   4  38
%  4   6  32   0   0
%  4   7  33   0   0
%  4   8  34   1   0
%      3   4  22
%
%  8  35  42  13  50
%  2   2   3   4   3   6   4   4   3   6   4   6   3 
%  5   1  35   0   0
%  5   2  36   0   0
%  5   3  37   0   0
%  5   4  38   1   0
%      4   5  31
%  5   5  39   0   0
%  5   6  40   0   0
%  5   7  41   0   1
%      6   5  47
%  5   8  42   0   0
%
%  9  43  51  18 100
%  3   3  12  12   2   2   6   6   3   3   3   3   6   3   6  18   6   3 
%  6   1  43   0   0
%  6   2  44   0   0
%  6   3  45   0   0
%  6   4  46   0   0
%  6   5  47   1   0
%      5   7  41
%  6   6  48   0   0
%  6   7  49   0   0
%  6   8  50   0   0
%  6   9  51   0   1
%      7   1  52
%
%  8  52  59  18  81
%  6   6   3   2   6   2  18   6   3   3   2   2   3   6   3   6   2   2 
%  7   1  52   1   0
%      6   9  51
%  7   2  53   0   0
%  7   3  54   0   1
%      8   1  60
%  7   4  55   0   0
%  7   5  56   0   0
%  7   6  57   0   1
%      8   2  61
%  7   7  58   0   0
%  7   8  59   0   0
%
%  8  60  67  17  75
%  6   2  12   6   6   2   6   3   3   4   6   4   2   4   2   4   3 
%  8   1  60   1   0
%      7   3  54
%  8   2  61   1   0
%      7   6  57
%  8   3  62   0   0
%  8   4  63   0   0
%  8   5  64   0   1
%      9   2  69
%  8   6  65   0   0
%  8   7  66   0   0
%  8   8  67   0   0
%
%  9  68  76  15  81
%  3  18   3   3   6   2   6   2   2   3   6   3  18   4   2 
%  9   1  68   0   1
%     10   2  78
%  9   2  69   1   0
%      8   5  64
%  9   3  70   0   0
%  9   4  71   0   0
%  9   5  72   0   0
%  9   6  73   0   0
%  9   7  74   0   0
%  9   8  75   0   0
%  9   9  76   0   0
%
%  9  77  85  18  63
%  3   2   2   2   2  18   2   2   2   3   3   6   3   3   2   4   2   2 
% 10   1  77   0   0
% 10   2  78   1   0
%      9   1  68
% 10   3  79   0   0
% 10   4  80   0   0
% 10   5  81   0   0
% 10   6  82   0   0
% 10   7  83   0   0
% 10   8  84   0   0
% 10   9  85   0   0
%
%513
